************************************************************************
file with basedata            : md349_.bas
initial value random generator: 1800795516
************************************************************************
projects                      :  1
jobs (incl. supersource/sink ):  22
horizon                       :  158
RESOURCES
  - renewable                 :  2   R
  - nonrenewable              :  2   N
  - doubly constrained        :  0   D
************************************************************************
PROJECT INFORMATION:
pronr.  #jobs rel.date duedate tardcost  MPM-Time
    1     20      0       27        1       27
************************************************************************
PRECEDENCE RELATIONS:
jobnr.    #modes  #successors   successors
   1        1          3           2   3   4
   2        3          3           7  12  18
   3        3          1          16
   4        3          3           5   7  14
   5        3          3           6  10  15
   6        3          3           9  18  21
   7        3          2           8  15
   8        3          2           9  10
   9        3          1          11
  10        3          2          13  21
  11        3          1          13
  12        3          2          14  15
  13        3          2          17  20
  14        3          1          19
  15        3          2          17  20
  16        3          3          17  18  21
  17        3          1          19
  18        3          2          19  20
  19        3          1          22
  20        3          1          22
  21        3          1          22
  22        1          0        
************************************************************************
REQUESTS/DURATIONS:
jobnr. mode duration  R 1  R 2  N 1  N 2
------------------------------------------------------------------------
  1      1     0       0    0    0    0
  2      1     2       8    5    0    8
         2     7       8    4    0    7
         3     9       4    4    2    0
  3      1     3       7    6    0    6
         2     7       6    6    0    3
         3     8       4    4    5    0
  4      1     3       5    7    0    4
         2     5       4    6    7    0
         3    10       4    3    6    0
  5      1     7       3    7    9    0
         2     8       3    6    7    0
         3    10       3    6    6    0
  6      1     3       9    3    0    8
         2     7       8    3    1    0
         3    10       8    2    0    6
  7      1     2       7    2    0   10
         2     4       6    2    0    8
         3     5       2    2    0    7
  8      1     2       7    8    0    5
         2     2       7    8    2    0
         3     5       7    1    1    0
  9      1     4       5    7    0    1
         2     4       6    7    2    0
         3     7       2    6    0    1
 10      1     1       8    8    3    0
         2     5       7    7    0    6
         3     7       6    7    0    5
 11      1     1       8    7    6    0
         2     1       8    7    0    6
         3     6       8    5    0    4
 12      1     2       8    9    0    8
         2     4       6    4    7    0
         3     5       6    2    0    8
 13      1     3       3    7    0    6
         2     4       3    7    0    3
         3    10       2    3    7    0
 14      1     8       6    6    5    0
         2     8       7    8    0    7
         3     9       6    3    0    5
 15      1     3       3    4    0    3
         2     5       3    3    2    0
         3     6       2    3    0    2
 16      1     3       6    7    6    0
         2     4       5    6    0    8
         3    10       5    3    0    6
 17      1     3       5    9    0   10
         2     6       4    7    0    9
         3    10       3    5    0    8
 18      1     6       9   10    0    8
         2     7       8    7    6    0
         3    10       7    3    0    7
 19      1     3       2   10    0    5
         2     5       2    6    0    3
         3    10       2    6    2    0
 20      1     2       5    8   10    0
         2     3       4    7    0    6
         3     4       1    7    6    0
 21      1     1       6    8    8    0
         2     4       6    8    4    0
         3     7       5    7    2    0
 22      1     0       0    0    0    0
************************************************************************
RESOURCEAVAILABILITIES:
  R 1  R 2  N 1  N 2
   13   13   90  115
************************************************************************
